(declare-fun c_0 () Int)
(assert (and (< c_0 40) (>= c_0 0)))
(declare-fun c_1 () Int)
(assert (and (< c_1 75) (>= c_1 0)))
(declare-fun c_2 () Int)
(assert (and (< c_2 35) (>= c_2 0)))
(declare-fun c_3 () Int)
(assert (and (< c_3 125) (>= c_3 0)))
(declare-fun c_4 () Int)
(assert (and (< c_4 125) (>= c_4 0)))
(declare-fun c_5 () Int)
(assert (and (< c_5 125) (>= c_5 0)))
(declare-fun c_6 () Int)
(assert (and (< c_6 125) (>= c_6 0)))
(declare-fun c_7 () Int)
(assert (and (< c_7 500) (>= c_7 0)))
(declare-fun c_8 () Int)
(assert (and (< c_8 30) (>= c_8 0)))
(declare-fun c_9 () Int)
(assert (and (< c_9 30) (>= c_9 0)))
(declare-fun c_10 () Int)
(assert (and (< c_10 30) (>= c_10 0)))
(declare-fun c_11 () Int)
(assert (and (< c_11 125) (>= c_11 0)))
(declare-fun c_12 () Int)
(assert (and (< c_12 125) (>= c_12 0)))
(declare-fun c_13 () Int)
(assert (and (< c_13 75) (>= c_13 0)))
(declare-fun c_14 () Int)
(assert (and (< c_14 125) (>= c_14 0)))
(declare-fun c_15 () Int)
(assert (and (< c_15 125) (>= c_15 0)))
(declare-fun c_16 () Int)
(assert (and (< c_16 125) (>= c_16 0)))
(declare-fun c_17 () Int)
(assert (and (< c_17 125) (>= c_17 0)))
(declare-fun c_18 () Int)
(assert (and (< c_18 125) (>= c_18 0)))
(declare-fun c_19 () Int)
(assert (and (< c_19 125) (>= c_19 0)))
(declare-fun c_20 () Int)
(assert (and (< c_20 75) (>= c_20 0)))
(declare-fun c_21 () Int)
(assert (and (< c_21 30) (>= c_21 0)))
(declare-fun c_22 () Int)
(assert (and (< c_22 125) (>= c_22 0)))
(declare-fun c_23 () Int)
(assert (and (< c_23 35) (>= c_23 0)))
(declare-fun c_24 () Int)
(assert (and (< c_24 125) (>= c_24 0)))
(declare-fun c_25 () Int)
(assert (and (< c_25 125) (>= c_25 0)))
(declare-fun c_26 () Int)
(assert (and (< c_26 125) (>= c_26 0)))
(declare-fun c_27 () Int)
(assert (and (< c_27 30) (>= c_27 0)))
(declare-fun c_28 () Int)
(assert (and (< c_28 500) (>= c_28 0)))
(declare-fun c_29 () Int)
(assert (and (< c_29 125) (>= c_29 0)))
(declare-fun c_30 () Int)
(assert (and (< c_30 75) (>= c_30 0)))
(declare-fun c_31 () Int)
(assert (and (< c_31 125) (>= c_31 0)))
(declare-fun c_32 () Int)
(assert (and (< c_32 40) (>= c_32 0)))
(declare-fun c_33 () Int)
(assert (and (< c_33 35) (>= c_33 0)))
(declare-fun c_34 () Int)
(assert (and (< c_34 35) (>= c_34 0)))
(declare-fun c_35 () Int)
(assert (and (< c_35 125) (>= c_35 0)))
(declare-fun c_36 () Int)
(assert (and (< c_36 125) (>= c_36 0)))
(assert (not (or (= c_0 c_32) (= c_32 c_0))))
(assert (not (or (= c_7 c_28) (= c_28 c_7))))
(assert (not (or (or (or (or (or (or (or (or (or (or (or (= c_1 c_13) (= c_1 c_20)) (= c_1 c_30)) (= c_13 c_1)) (= c_13 c_20)) (= c_13 c_30)) (= c_20 c_1)) (= c_20 c_13)) (= c_20 c_30)) (= c_30 c_1)) (= c_30 c_13)) (= c_30 c_20))))
(assert (not (or (or (or (or (or (or (or (or (or (or (or (= c_2 c_23) (= c_2 c_33)) (= c_2 c_34)) (= c_23 c_2)) (= c_23 c_33)) (= c_23 c_34)) (= c_33 c_2)) (= c_33 c_23)) (= c_33 c_34)) (= c_34 c_2)) (= c_34 c_23)) (= c_34 c_33))))
(assert (not (or (or (or (or (or (or (or (or (or (or (or (or (or (or (or (or (or (or (or (or (or (or (or (or (or (or (or (or (or (or (or (or (or (or (or (or (or (or (or (or (or (or (or (or (or (or (or (or (or (or (or (or (or (or (or (or (or (or (or (or (or (or (or (or (or (or (or (or (or (or (or (or (or (or (or (or (or (or (or (or (or (or (or (or (or (or (or (or (or (or (or (or (or (or (or (or (or (or (or (or (or (or (or (or (or (or (or (or (or (or (or (or (or (or (or (or (or (or (or (or (or (or (or (or (or (or (or (or (or (or (or (or (or (or (or (or (or (or (or (or (or (or (or (or (or (or (or (or (or (or (or (or (or (or (or (or (or (or (or (or (or (or (or (or (or (or (or (or (or (or (or (or (or (or (or (or (or (or (or (or (or (or (or (or (or (or (or (or (or (or (or (or (or (or (or (or (or (or (or (or (or (or (or (or (or (or (or (or (or (or (or (or (or (or (or (or (or (or (or (or (or (or (or (or (or (or (or (or (or (or (or (or (or (or (or (or (or (or (or (or (or (or (or (or (or (or (or (or (or (or (or (or (or (or (or (or (or (or (or (or (or (or (or (or (or (or (or (or (or (or (or (or (or (or (or (or (or (or (or (or (or (or (or (or (or (or (or (or (or (or (or (or (or (or (or (or (or (or (or (or (or (or (or (or (or (or (or (or (or (or (or (or (or (or (or (or (or (or (or (or (or (or (or (or (or (or (or (or (or (or (or (or (or (or (or (or (or (or (or (or (or (or (or (or (or (or (or (or (or (or (or (or (or (or (or (or (or (or (or (or (or (or (or (or (or (or (or (or (or (or (or (or (or (or (or (or (or (or (or (= c_3 c_4) (= c_3 c_5)) (= c_3 c_6)) (= c_3 c_11)) (= c_3 c_12)) (= c_3 c_14)) (= c_3 c_15)) (= c_3 c_16)) (= c_3 c_17)) (= c_3 c_18)) (= c_3 c_19)) (= c_3 c_22)) (= c_3 c_24)) (= c_3 c_25)) (= c_3 c_26)) (= c_3 c_29)) (= c_3 c_31)) (= c_3 c_35)) (= c_3 c_36)) (= c_4 c_3)) (= c_4 c_5)) (= c_4 c_6)) (= c_4 c_11)) (= c_4 c_12)) (= c_4 c_14)) (= c_4 c_15)) (= c_4 c_16)) (= c_4 c_17)) (= c_4 c_18)) (= c_4 c_19)) (= c_4 c_22)) (= c_4 c_24)) (= c_4 c_25)) (= c_4 c_26)) (= c_4 c_29)) (= c_4 c_31)) (= c_4 c_35)) (= c_4 c_36)) (= c_5 c_3)) (= c_5 c_4)) (= c_5 c_6)) (= c_5 c_11)) (= c_5 c_12)) (= c_5 c_14)) (= c_5 c_15)) (= c_5 c_16)) (= c_5 c_17)) (= c_5 c_18)) (= c_5 c_19)) (= c_5 c_22)) (= c_5 c_24)) (= c_5 c_25)) (= c_5 c_26)) (= c_5 c_29)) (= c_5 c_31)) (= c_5 c_35)) (= c_5 c_36)) (= c_6 c_3)) (= c_6 c_4)) (= c_6 c_5)) (= c_6 c_11)) (= c_6 c_12)) (= c_6 c_14)) (= c_6 c_15)) (= c_6 c_16)) (= c_6 c_17)) (= c_6 c_18)) (= c_6 c_19)) (= c_6 c_22)) (= c_6 c_24)) (= c_6 c_25)) (= c_6 c_26)) (= c_6 c_29)) (= c_6 c_31)) (= c_6 c_35)) (= c_6 c_36)) (= c_11 c_3)) (= c_11 c_4)) (= c_11 c_5)) (= c_11 c_6)) (= c_11 c_12)) (= c_11 c_14)) (= c_11 c_15)) (= c_11 c_16)) (= c_11 c_17)) (= c_11 c_18)) (= c_11 c_19)) (= c_11 c_22)) (= c_11 c_24)) (= c_11 c_25)) (= c_11 c_26)) (= c_11 c_29)) (= c_11 c_31)) (= c_11 c_35)) (= c_11 c_36)) (= c_12 c_3)) (= c_12 c_4)) (= c_12 c_5)) (= c_12 c_6)) (= c_12 c_11)) (= c_12 c_14)) (= c_12 c_15)) (= c_12 c_16)) (= c_12 c_17)) (= c_12 c_18)) (= c_12 c_19)) (= c_12 c_22)) (= c_12 c_24)) (= c_12 c_25)) (= c_12 c_26)) (= c_12 c_29)) (= c_12 c_31)) (= c_12 c_35)) (= c_12 c_36)) (= c_14 c_3)) (= c_14 c_4)) (= c_14 c_5)) (= c_14 c_6)) (= c_14 c_11)) (= c_14 c_12)) (= c_14 c_15)) (= c_14 c_16)) (= c_14 c_17)) (= c_14 c_18)) (= c_14 c_19)) (= c_14 c_22)) (= c_14 c_24)) (= c_14 c_25)) (= c_14 c_26)) (= c_14 c_29)) (= c_14 c_31)) (= c_14 c_35)) (= c_14 c_36)) (= c_15 c_3)) (= c_15 c_4)) (= c_15 c_5)) (= c_15 c_6)) (= c_15 c_11)) (= c_15 c_12)) (= c_15 c_14)) (= c_15 c_16)) (= c_15 c_17)) (= c_15 c_18)) (= c_15 c_19)) (= c_15 c_22)) (= c_15 c_24)) (= c_15 c_25)) (= c_15 c_26)) (= c_15 c_29)) (= c_15 c_31)) (= c_15 c_35)) (= c_15 c_36)) (= c_16 c_3)) (= c_16 c_4)) (= c_16 c_5)) (= c_16 c_6)) (= c_16 c_11)) (= c_16 c_12)) (= c_16 c_14)) (= c_16 c_15)) (= c_16 c_17)) (= c_16 c_18)) (= c_16 c_19)) (= c_16 c_22)) (= c_16 c_24)) (= c_16 c_25)) (= c_16 c_26)) (= c_16 c_29)) (= c_16 c_31)) (= c_16 c_35)) (= c_16 c_36)) (= c_17 c_3)) (= c_17 c_4)) (= c_17 c_5)) (= c_17 c_6)) (= c_17 c_11)) (= c_17 c_12)) (= c_17 c_14)) (= c_17 c_15)) (= c_17 c_16)) (= c_17 c_18)) (= c_17 c_19)) (= c_17 c_22)) (= c_17 c_24)) (= c_17 c_25)) (= c_17 c_26)) (= c_17 c_29)) (= c_17 c_31)) (= c_17 c_35)) (= c_17 c_36)) (= c_18 c_3)) (= c_18 c_4)) (= c_18 c_5)) (= c_18 c_6)) (= c_18 c_11)) (= c_18 c_12)) (= c_18 c_14)) (= c_18 c_15)) (= c_18 c_16)) (= c_18 c_17)) (= c_18 c_19)) (= c_18 c_22)) (= c_18 c_24)) (= c_18 c_25)) (= c_18 c_26)) (= c_18 c_29)) (= c_18 c_31)) (= c_18 c_35)) (= c_18 c_36)) (= c_19 c_3)) (= c_19 c_4)) (= c_19 c_5)) (= c_19 c_6)) (= c_19 c_11)) (= c_19 c_12)) (= c_19 c_14)) (= c_19 c_15)) (= c_19 c_16)) (= c_19 c_17)) (= c_19 c_18)) (= c_19 c_22)) (= c_19 c_24)) (= c_19 c_25)) (= c_19 c_26)) (= c_19 c_29)) (= c_19 c_31)) (= c_19 c_35)) (= c_19 c_36)) (= c_22 c_3)) (= c_22 c_4)) (= c_22 c_5)) (= c_22 c_6)) (= c_22 c_11)) (= c_22 c_12)) (= c_22 c_14)) (= c_22 c_15)) (= c_22 c_16)) (= c_22 c_17)) (= c_22 c_18)) (= c_22 c_19)) (= c_22 c_24)) (= c_22 c_25)) (= c_22 c_26)) (= c_22 c_29)) (= c_22 c_31)) (= c_22 c_35)) (= c_22 c_36)) (= c_24 c_3)) (= c_24 c_4)) (= c_24 c_5)) (= c_24 c_6)) (= c_24 c_11)) (= c_24 c_12)) (= c_24 c_14)) (= c_24 c_15)) (= c_24 c_16)) (= c_24 c_17)) (= c_24 c_18)) (= c_24 c_19)) (= c_24 c_22)) (= c_24 c_25)) (= c_24 c_26)) (= c_24 c_29)) (= c_24 c_31)) (= c_24 c_35)) (= c_24 c_36)) (= c_25 c_3)) (= c_25 c_4)) (= c_25 c_5)) (= c_25 c_6)) (= c_25 c_11)) (= c_25 c_12)) (= c_25 c_14)) (= c_25 c_15)) (= c_25 c_16)) (= c_25 c_17)) (= c_25 c_18)) (= c_25 c_19)) (= c_25 c_22)) (= c_25 c_24)) (= c_25 c_26)) (= c_25 c_29)) (= c_25 c_31)) (= c_25 c_35)) (= c_25 c_36)) (= c_26 c_3)) (= c_26 c_4)) (= c_26 c_5)) (= c_26 c_6)) (= c_26 c_11)) (= c_26 c_12)) (= c_26 c_14)) (= c_26 c_15)) (= c_26 c_16)) (= c_26 c_17)) (= c_26 c_18)) (= c_26 c_19)) (= c_26 c_22)) (= c_26 c_24)) (= c_26 c_25)) (= c_26 c_29)) (= c_26 c_31)) (= c_26 c_35)) (= c_26 c_36)) (= c_29 c_3)) (= c_29 c_4)) (= c_29 c_5)) (= c_29 c_6)) (= c_29 c_11)) (= c_29 c_12)) (= c_29 c_14)) (= c_29 c_15)) (= c_29 c_16)) (= c_29 c_17)) (= c_29 c_18)) (= c_29 c_19)) (= c_29 c_22)) (= c_29 c_24)) (= c_29 c_25)) (= c_29 c_26)) (= c_29 c_31)) (= c_29 c_35)) (= c_29 c_36)) (= c_31 c_3)) (= c_31 c_4)) (= c_31 c_5)) (= c_31 c_6)) (= c_31 c_11)) (= c_31 c_12)) (= c_31 c_14)) (= c_31 c_15)) (= c_31 c_16)) (= c_31 c_17)) (= c_31 c_18)) (= c_31 c_19)) (= c_31 c_22)) (= c_31 c_24)) (= c_31 c_25)) (= c_31 c_26)) (= c_31 c_29)) (= c_31 c_35)) (= c_31 c_36)) (= c_35 c_3)) (= c_35 c_4)) (= c_35 c_5)) (= c_35 c_6)) (= c_35 c_11)) (= c_35 c_12)) (= c_35 c_14)) (= c_35 c_15)) (= c_35 c_16)) (= c_35 c_17)) (= c_35 c_18)) (= c_35 c_19)) (= c_35 c_22)) (= c_35 c_24)) (= c_35 c_25)) (= c_35 c_26)) (= c_35 c_29)) (= c_35 c_31)) (= c_35 c_36)) (= c_36 c_3)) (= c_36 c_4)) (= c_36 c_5)) (= c_36 c_6)) (= c_36 c_11)) (= c_36 c_12)) (= c_36 c_14)) (= c_36 c_15)) (= c_36 c_16)) (= c_36 c_17)) (= c_36 c_18)) (= c_36 c_19)) (= c_36 c_22)) (= c_36 c_24)) (= c_36 c_25)) (= c_36 c_26)) (= c_36 c_29)) (= c_36 c_31)) (= c_36 c_35))))
(assert (not (or (or (or (or (or (or (or (or (or (or (or (or (or (or (or (or (or (or (or (= c_8 c_9) (= c_8 c_10)) (= c_8 c_21)) (= c_8 c_27)) (= c_9 c_8)) (= c_9 c_10)) (= c_9 c_21)) (= c_9 c_27)) (= c_10 c_8)) (= c_10 c_9)) (= c_10 c_21)) (= c_10 c_27)) (= c_21 c_8)) (= c_21 c_9)) (= c_21 c_10)) (= c_21 c_27)) (= c_27 c_8)) (= c_27 c_9)) (= c_27 c_10)) (= c_27 c_21))))
(declare-fun w_0 () Int)
(declare-fun w_1 () Int)
(assert (and (and (< w_0 35) (>= w_0 0)) (and (< w_1 75) (>= w_1 0))))
(declare-fun w_2 () Int)
(declare-fun w_3 () Int)
(assert (and (and (< w_2 30) (>= w_2 0)) (and (< w_3 35) (>= w_3 0))))
(declare-fun w_4 () Int)
(declare-fun w_5 () Int)
(assert (and (and (< w_4 125) (>= w_4 0)) (and (< w_5 40) (>= w_5 0))))
(declare-fun w_6 () Int)
(declare-fun w_7 () Int)
(assert (and (and (< w_6 35) (>= w_6 0)) (and (< w_7 30) (>= w_7 0))))
(declare-fun w_8 () Int)
(assert (and (and (< w_6 35) (>= w_6 0)) (and (< w_8 30) (>= w_8 0))))
(declare-fun w_9 () Int)
(assert (and (and (< w_6 35) (>= w_6 0)) (and (< w_9 40) (>= w_9 0))))
(declare-fun w_10 () Int)
(assert (and (and (< w_6 35) (>= w_6 0)) (and (< w_10 75) (>= w_10 0))))
(declare-fun w_11 () Int)
(declare-fun w_12 () Int)
(assert (and (and (< w_11 35) (>= w_11 0)) (and (< w_12 30) (>= w_12 0))))
(declare-fun w_13 () Int)
(assert (and (and (< w_11 35) (>= w_11 0)) (and (< w_13 30) (>= w_13 0))))
(declare-fun w_14 () Int)
(assert (and (and (< w_11 35) (>= w_11 0)) (and (< w_14 75) (>= w_14 0))))
(declare-fun w_15 () Int)
(declare-fun w_16 () Int)
(assert (and (and (< w_15 40) (>= w_15 0)) (and (< w_16 35) (>= w_16 0))))
(declare-fun w_17 () Int)
(declare-fun w_18 () Int)
(assert (and (and (< w_17 500) (>= w_17 0)) (and (< w_18 30) (>= w_18 0))))
(declare-fun w_19 () Int)
(declare-fun w_20 () Int)
(assert (and (and (< w_19 125) (>= w_19 0)) (and (< w_20 35) (>= w_20 0))))
(declare-fun w_21 () Int)
(declare-fun w_22 () Int)
(assert (and (and (< w_21 125) (>= w_21 0)) (and (< w_22 35) (>= w_22 0))))
(declare-fun w_23 () Int)
(declare-fun w_24 () Int)
(assert (and (and (< w_23 125) (>= w_23 0)) (and (< w_24 30) (>= w_24 0))))
(declare-fun w_25 () Int)
(declare-fun w_26 () Int)
(assert (and (and (< w_25 125) (>= w_25 0)) (and (< w_26 30) (>= w_26 0))))
(declare-fun w_27 () Int)
(declare-fun w_28 () Int)
(assert (and (and (< w_27 125) (>= w_27 0)) (and (< w_28 35) (>= w_28 0))))
(declare-fun w_29 () Int)
(declare-fun w_30 () Int)
(assert (and (and (< w_29 30) (>= w_29 0)) (and (< w_30 35) (>= w_30 0))))
(declare-fun w_31 () Int)
(declare-fun w_32 () Int)
(assert (and (and (< w_31 125) (>= w_31 0)) (and (< w_32 35) (>= w_32 0))))
(declare-fun w_33 () Int)
(declare-fun w_34 () Int)
(assert (and (and (< w_33 125) (>= w_33 0)) (and (< w_34 35) (>= w_34 0))))
(declare-fun w_35 () Int)
(declare-fun w_36 () Int)
(assert (and (and (< w_35 125) (>= w_35 0)) (and (< w_36 35) (>= w_36 0))))
(declare-fun w_37 () Int)
(declare-fun w_38 () Int)
(assert (and (and (< w_37 125) (>= w_37 0)) (and (< w_38 35) (>= w_38 0))))
(declare-fun w_39 () Int)
(declare-fun w_40 () Int)
(assert (and (and (< w_39 40) (>= w_39 0)) (and (< w_40 30) (>= w_40 0))))
(declare-fun w_41 () Int)
(declare-fun w_42 () Int)
(assert (and (and (< w_41 125) (>= w_41 0)) (and (< w_42 40) (>= w_42 0))))
(declare-fun w_43 () Int)
(declare-fun w_44 () Int)
(assert (and (and (< w_43 30) (>= w_43 0)) (and (< w_44 35) (>= w_44 0))))
(declare-fun w_45 () Int)
(declare-fun w_46 () Int)
(assert (and (and (< w_45 500) (>= w_45 0)) (and (< w_46 30) (>= w_46 0))))
(declare-fun w_47 () Int)
(declare-fun w_48 () Int)
(assert (and (and (< w_47 125) (>= w_47 0)) (and (< w_48 40) (>= w_48 0))))
(declare-fun w_49 () Int)
(declare-fun w_50 () Int)
(assert (and (and (< w_49 125) (>= w_49 0)) (and (< w_50 35) (>= w_50 0))))
(declare-fun w_51 () Int)
(declare-fun w_52 () Int)
(assert (and (and (< w_51 35) (>= w_51 0)) (and (< w_52 40) (>= w_52 0))))
(declare-fun w_53 () Int)
(assert (and (and (< w_51 35) (>= w_51 0)) (and (< w_53 30) (>= w_53 0))))
(declare-fun w_54 () Int)
(assert (and (and (< w_51 35) (>= w_51 0)) (and (< w_54 75) (>= w_54 0))))
(declare-fun w_55 () Int)
(declare-fun w_56 () Int)
(assert (and (and (< w_55 30) (>= w_55 0)) (and (< w_56 35) (>= w_56 0))))
(declare-fun w_57 () Int)
(declare-fun w_58 () Int)
(assert (and (and (< w_57 125) (>= w_57 0)) (and (< w_58 35) (>= w_58 0))))
(declare-fun w_59 () Int)
(declare-fun w_60 () Int)
(assert (and (and (< w_59 125) (>= w_59 0)) (and (< w_60 35) (>= w_60 0))))
(declare-fun w_61 () Int)
(declare-fun w_62 () Int)
(assert (and (and (< w_61 30) (>= w_61 0)) (and (< w_62 35) (>= w_62 0))))
(declare-fun w_63 () Int)
(declare-fun w_64 () Int)
(assert (and (and (< w_63 125) (>= w_63 0)) (and (< w_64 35) (>= w_64 0))))
(declare-fun w_65 () Int)
(declare-fun w_66 () Int)
(assert (and (and (< w_65 125) (>= w_65 0)) (and (< w_66 40) (>= w_66 0))))
(declare-fun w_67 () Int)
(declare-fun w_68 () Int)
(assert (and (and (< w_67 125) (>= w_67 0)) (and (< w_68 35) (>= w_68 0))))
(declare-fun w_69 () Int)
(declare-fun w_70 () Int)
(assert (and (and (< w_69 125) (>= w_69 0)) (and (< w_70 35) (>= w_70 0))))
(declare-fun w_71 () Int)
(declare-fun w_72 () Int)
(assert (and (and (< w_71 125) (>= w_71 0)) (and (< w_72 35) (>= w_72 0))))
(assert (or (or (= w_48 w_15) (= w_48 w_9)) (= w_48 w_5)))
(assert (or (or (or (or (= w_72 w_70) (= w_72 w_68)) (= w_72 w_60)) (= w_72 w_30)) (= w_72 w_6)))
(assert (or (= w_43 w_18) (= w_43 w_8)))
(assert (or (= w_61 w_24) (= w_61 w_13)))
(assert (or (= w_40 w_29) (= w_40 w_12)))
(assert (or (= w_55 w_46) (= w_55 w_7)))
(assert (or (or (or (or (= w_44 w_38) (= w_44 w_36)) (= w_44 w_22)) (= w_44 w_11)) (= w_44 w_3)))
(assert (or (= w_53 w_26) (= w_53 w_2)))
(assert (or (or (= w_66 w_52) (= w_66 w_42)) (= w_66 w_39)))
(assert (or (or (or (or (= w_58 w_56) (= w_58 w_50)) (= w_58 w_32)) (= w_58 w_20)) (= w_58 w_0)))
(assert (or (or (or (or (= w_64 w_62) (= w_64 w_51)) (= w_64 w_34)) (= w_64 w_28)) (= w_64 w_16)))
(check-sat)
(get-model)
